NAME = AISearchfile017,
SIZE = 17,
239,140,448,420,53,123,518,57,240,246,202,199,383,268,207,165,
292,250,567,324,282,35,154,208,528,352,353,61,74,110,324,
91,189,314,338,55,228,412,157,661,360,488,336,105,196,
439,95,264,96,390,227,289,257,444,112,184,309,77,
70,27,84,254,68,472,287,191,47,211,346,83,
437,297,435,297,237,578,638,329,466,240,421,
36,249,175,332,232,505,372,243,259,555,
336,301,121,153,29,238,142,236,390,
383,483,633,495,267,145,29,63,
542,169,196,150,326,154,572,
426,364,685,745,349,202,
402,120,391,34,351,
476,182,289,262,
108,530,80,
105,150,
134